p cnf 20 46
1 2 0
 3 2 0
 4 2 0
 -1 -3 -4 -2 0
 5 6 0
 7 6 0
 8 6 0
 -5 -7 -8 -6 0
 -2 6 -9 0
 2 -6 -9 0
 -2 -6 9 0
 2 6 9 0
 -9 0
 1 10 0
 11 10 0
 4 10 0
 -11 -1 -4 -10 0
 5 12 0
 13 12 0
 8 12 0
 -5 -8 -13 -12 0
 12 -10 0
 10 -12 0
 14 15 0
 3 15 0
 4 15 0
 -3 -4 -14 -15 0
 16 17 0
 7 17 0
 8 17 0
 -7 -8 -16 -17 0
 17 -15 0
 15 -17 0
 14 18 0
 11 18 0
 4 18 0
 -11 -4 -14 -18 0
 16 19 0
 13 19 0
 8 19 0
 -8 -16 -13 -19 0
 -18 19 -20 0
 18 -19 -20 0
 -18 -19 20 0
 18 19 20 0
 -20 0
